NAME /Users/henri/Research/solvers/instances/idol-instances/robust/collection/cbp_Subramanyam_et_al_2020/CapBud_N20_4/models/uncertain_technology_matrix/
ROWS
 N  OBJ
 L  capacity
 L  c_2405
 L  c_2406
 L  c_2407
 L  c_2408
 L  c_2409
 L  c_2410
 L  c_2411
 L  c_2412
 L  c_2413
 L  c_2414
 L  c_2415
 L  c_2416
 L  c_2417
 L  c_2418
 L  c_2419
 L  c_2420
 L  c_2421
 L  c_2422
 L  c_2423
 L  c_2424
COLUMNS
    MARKER    'MARKER'                 'INTORG'
    x_0        OBJ        -3.74898
    x_0        c_2405     1
    x_0        capacity   0.749795
    x_1        OBJ        -9.26382
    x_1        c_2406     1
    x_1        capacity   1.85276
    x_2        OBJ        -2.16528
    x_2        c_2407     1
    x_2        capacity   0.433056
    x_3        OBJ        -2.24871
    x_3        c_2408     1
    x_3        capacity   0.449741
    x_4        OBJ        -4.18756
    x_4        c_2409     1
    x_4        capacity   0.837511
    x_5        OBJ        -3.77206
    x_5        c_2410     1
    x_5        capacity   0.754411
    x_6        OBJ        -4.43801
    x_6        c_2411     1
    x_6        capacity   0.887602
    x_7        OBJ        -6.03205
    x_7        c_2412     1
    x_7        capacity   1.20641
    x_8        OBJ        -8.93605
    x_8        c_2413     1
    x_8        capacity   1.78721
    x_9        OBJ        -9.38719
    x_9        c_2414     1
    x_9        capacity   1.87744
    x_10       OBJ        -9.40486
    x_10       c_2415     1
    x_10       capacity   1.88097
    x_11       OBJ        -0.0554439
    x_11       c_2416     1
    x_11       capacity   0.0110888
    x_12       OBJ        -8.56328
    x_12       c_2417     1
    x_12       capacity   1.71266
    x_13       OBJ        -5.81892
    x_13       c_2418     1
    x_13       capacity   1.16378
    x_14       OBJ        -4.01196
    x_14       c_2419     1
    x_14       capacity   0.802392
    x_15       OBJ        -6.4163
    x_15       c_2420     1
    x_15       capacity   1.28326
    x_16       OBJ        -5.69448
    x_16       c_2421     1
    x_16       capacity   1.1389
    x_17       OBJ        -2.04853
    x_17       c_2422     1
    x_17       capacity   0.409705
    x_18       OBJ        -0.847163
    x_18       c_2423     1
    x_18       capacity   0.169433
    x_19       OBJ        -1.92236
    x_19       c_2424     1
    x_19       capacity   0.384472
    y_0        OBJ        -2.99918
    y_0        c_2405     1
    y_0        capacity   0.749795
    y_1        OBJ        -7.41105
    y_1        c_2406     1
    y_1        capacity   1.85276
    y_2        OBJ        -1.73222
    y_2        c_2407     1
    y_2        capacity   0.433056
    y_3        OBJ        -1.79897
    y_3        c_2408     1
    y_3        capacity   0.449741
    y_4        OBJ        -3.35005
    y_4        c_2409     1
    y_4        capacity   0.837511
    y_5        OBJ        -3.01765
    y_5        c_2410     1
    y_5        capacity   0.754411
    y_6        OBJ        -3.55041
    y_6        c_2411     1
    y_6        capacity   0.887602
    y_7        OBJ        -4.82564
    y_7        c_2412     1
    y_7        capacity   1.20641
    y_8        OBJ        -7.14884
    y_8        c_2413     1
    y_8        capacity   1.78721
    y_9        OBJ        -7.50975
    y_9        c_2414     1
    y_9        capacity   1.87744
    y_10       OBJ        -7.52389
    y_10       c_2415     1
    y_10       capacity   1.88097
    y_11       OBJ        -0.0443552
    y_11       c_2416     1
    y_11       capacity   0.0110888
    y_12       OBJ        -6.85062
    y_12       c_2417     1
    y_12       capacity   1.71266
    y_13       OBJ        -4.65514
    y_13       c_2418     1
    y_13       capacity   1.16378
    y_14       OBJ        -3.20957
    y_14       c_2419     1
    y_14       capacity   0.802392
    y_15       OBJ        -5.13304
    y_15       c_2420     1
    y_15       capacity   1.28326
    y_16       OBJ        -4.55559
    y_16       c_2421     1
    y_16       capacity   1.1389
    y_17       OBJ        -1.63882
    y_17       c_2422     1
    y_17       capacity   0.409705
    y_18       OBJ        -0.677731
    y_18       c_2423     1
    y_18       capacity   0.169433
    y_19       OBJ        -1.53789
    y_19       c_2424     1
    y_19       capacity   0.384472
    MARKER    'MARKER'                 'INTEND'
RHS
    RHS       capacity   49.4815
    RHS       c_2405     1
    RHS       c_2406     1
    RHS       c_2407     1
    RHS       c_2408     1
    RHS       c_2409     1
    RHS       c_2410     1
    RHS       c_2411     1
    RHS       c_2412     1
    RHS       c_2413     1
    RHS       c_2414     1
    RHS       c_2415     1
    RHS       c_2416     1
    RHS       c_2417     1
    RHS       c_2418     1
    RHS       c_2419     1
    RHS       c_2420     1
    RHS       c_2421     1
    RHS       c_2422     1
    RHS       c_2423     1
    RHS       c_2424     1
BOUNDS
 LI BND       x_0        0
 UI BND       x_0        1
 LI BND       x_1        0
 UI BND       x_1        1
 LI BND       x_2        0
 UI BND       x_2        1
 LI BND       x_3        0
 UI BND       x_3        1
 LI BND       x_4        0
 UI BND       x_4        1
 LI BND       x_5        0
 UI BND       x_5        1
 LI BND       x_6        0
 UI BND       x_6        1
 LI BND       x_7        0
 UI BND       x_7        1
 LI BND       x_8        0
 UI BND       x_8        1
 LI BND       x_9        0
 UI BND       x_9        1
 LI BND       x_10       0
 UI BND       x_10       1
 LI BND       x_11       0
 UI BND       x_11       1
 LI BND       x_12       0
 UI BND       x_12       1
 LI BND       x_13       0
 UI BND       x_13       1
 LI BND       x_14       0
 UI BND       x_14       1
 LI BND       x_15       0
 UI BND       x_15       1
 LI BND       x_16       0
 UI BND       x_16       1
 LI BND       x_17       0
 UI BND       x_17       1
 LI BND       x_18       0
 UI BND       x_18       1
 LI BND       x_19       0
 UI BND       x_19       1
 LI BND       y_0        0
 UI BND       y_0        1
 LI BND       y_1        0
 UI BND       y_1        1
 LI BND       y_2        0
 UI BND       y_2        1
 LI BND       y_3        0
 UI BND       y_3        1
 LI BND       y_4        0
 UI BND       y_4        1
 LI BND       y_5        0
 UI BND       y_5        1
 LI BND       y_6        0
 UI BND       y_6        1
 LI BND       y_7        0
 UI BND       y_7        1
 LI BND       y_8        0
 UI BND       y_8        1
 LI BND       y_9        0
 UI BND       y_9        1
 LI BND       y_10       0
 UI BND       y_10       1
 LI BND       y_11       0
 UI BND       y_11       1
 LI BND       y_12       0
 UI BND       y_12       1
 LI BND       y_13       0
 UI BND       y_13       1
 LI BND       y_14       0
 UI BND       y_14       1
 LI BND       y_15       0
 UI BND       y_15       1
 LI BND       y_16       0
 UI BND       y_16       1
 LI BND       y_17       0
 UI BND       y_17       1
 LI BND       y_18       0
 UI BND       y_18       1
 LI BND       y_19       0
 UI BND       y_19       1
ENDATA
